Hello world
TEST
READING FILE...
File existence: 1
30
8
7
19
10
2
6
14
10
1
4
14
15
5
12
9
10
2
10
18
16
21
14
16
7
17
9
25
7
14
2
1,4
1,5
2,11
2,12
3,16
3,17
4,7
5,6
6,7
7,8
8,9
9,26
10,24
12,13
13,14
14,15
14,20
15,22
16,20
17,18
18,19
20,21
20,24
21,22
22,23
23,27
24,25
25,26
26,27
27,28
27,29
29,30
-1,-1
	0	1	2	3	4	5	6	7	8	9	10	11	12	13	14	15	16	17	18	19	20	21	22	23	24	25	26	27	28	29	30	31
0	0	1	1	1	0	0	0	0	0	0	1	0	0	0	0	0	0	0	0	0	0	0	0	0	0	0	0	0	0	0	0	0	
1	0	0	0	0	1	1	0	0	0	0	0	0	0	0	0	0	0	0	0	0	0	0	0	0	0	0	0	0	0	0	0	0	
2	0	0	0	0	0	0	0	0	0	0	0	1	1	0	0	0	0	0	0	0	0	0	0	0	0	0	0	0	0	0	0	0	
3	0	0	0	0	0	0	0	0	0	0	0	0	0	0	0	0	1	1	0	0	0	0	0	0	0	0	0	0	0	0	0	0	
4	0	0	0	0	0	0	0	1	0	0	0	0	0	0	0	0	0	0	0	0	0	0	0	0	0	0	0	0	0	0	0	0	
5	0	0	0	0	0	0	1	0	0	0	0	0	0	0	0	0	0	0	0	0	0	0	0	0	0	0	0	0	0	0	0	0	
6	0	0	0	0	0	0	0	1	0	0	0	0	0	0	0	0	0	0	0	0	0	0	0	0	0	0	0	0	0	0	0	0	
7	0	0	0	0	0	0	0	0	1	0	0	0	0	0	0	0	0	0	0	0	0	0	0	0	0	0	0	0	0	0	0	0	
8	0	0	0	0	0	0	0	0	0	1	0	0	0	0	0	0	0	0	0	0	0	0	0	0	0	0	0	0	0	0	0	0	
9	0	0	0	0	0	0	0	0	0	0	0	0	0	0	0	0	0	0	0	0	0	0	0	0	0	0	1	0	0	0	0	0	
10	0	0	0	0	0	0	0	0	0	0	0	0	0	0	0	0	0	0	0	0	0	0	0	0	1	0	0	0	0	0	0	0	
11	0	0	0	0	0	0	0	0	0	0	0	0	0	0	0	0	0	0	0	0	0	0	0	0	0	0	0	0	0	0	0	1	
12	0	0	0	0	0	0	0	0	0	0	0	0	0	1	0	0	0	0	0	0	0	0	0	0	0	0	0	0	0	0	0	0	
13	0	0	0	0	0	0	0	0	0	0	0	0	0	0	1	0	0	0	0	0	0	0	0	0	0	0	0	0	0	0	0	0	
14	0	0	0	0	0	0	0	0	0	0	0	0	0	0	0	1	0	0	0	0	1	0	0	0	0	0	0	0	0	0	0	0	
15	0	0	0	0	0	0	0	0	0	0	0	0	0	0	0	0	0	0	0	0	0	0	1	0	0	0	0	0	0	0	0	0	
16	0	0	0	0	0	0	0	0	0	0	0	0	0	0	0	0	0	0	0	0	1	0	0	0	0	0	0	0	0	0	0	0	
17	0	0	0	0	0	0	0	0	0	0	0	0	0	0	0	0	0	0	1	0	0	0	0	0	0	0	0	0	0	0	0	0	
18	0	0	0	0	0	0	0	0	0	0	0	0	0	0	0	0	0	0	0	1	0	0	0	0	0	0	0	0	0	0	0	0	
19	0	0	0	0	0	0	0	0	0	0	0	0	0	0	0	0	0	0	0	0	0	0	0	0	0	0	0	0	0	0	0	1	
20	0	0	0	0	0	0	0	0	0	0	0	0	0	0	0	0	0	0	0	0	0	1	0	0	1	0	0	0	0	0	0	0	
21	0	0	0	0	0	0	0	0	0	0	0	0	0	0	0	0	0	0	0	0	0	0	1	0	0	0	0	0	0	0	0	0	
22	0	0	0	0	0	0	0	0	0	0	0	0	0	0	0	0	0	0	0	0	0	0	0	1	0	0	0	0	0	0	0	0	
23	0	0	0	0	0	0	0	0	0	0	0	0	0	0	0	0	0	0	0	0	0	0	0	0	0	0	0	1	0	0	0	0	
24	0	0	0	0	0	0	0	0	0	0	0	0	0	0	0	0	0	0	0	0	0	0	0	0	0	1	0	0	0	0	0	0	
25	0	0	0	0	0	0	0	0	0	0	0	0	0	0	0	0	0	0	0	0	0	0	0	0	0	0	1	0	0	0	0	0	
26	0	0	0	0	0	0	0	0	0	0	0	0	0	0	0	0	0	0	0	0	0	0	0	0	0	0	0	1	0	0	0	0	
27	0	0	0	0	0	0	0	0	0	0	0	0	0	0	0	0	0	0	0	0	0	0	0	0	0	0	0	0	1	1	0	0	
28	0	0	0	0	0	0	0	0	0	0	0	0	0	0	0	0	0	0	0	0	0	0	0	0	0	0	0	0	0	0	0	1	
29	0	0	0	0	0	0	0	0	0	0	0	0	0	0	0	0	0	0	0	0	0	0	0	0	0	0	0	0	0	0	1	0	
30	0	0	0	0	0	0	0	0	0	0	0	0	0	0	0	0	0	0	0	0	0	0	0	0	0	0	0	0	0	0	0	1	
31	0	0	0	0	0	0	0	0	0	0	0	0	0	0	0	0	0	0	0	0	0	0	0	0	0	0	0	0	0	0	0	0	
--------------------------------------------------------------------------------------------------

Artificial Destination: 1
Artificial Origin: 1
 
--------------------------------------------------------------------------------------------------
Max common divisor: 1
--------------------------------------------------------------------------------------------------
Graph Total Duration: 324
Heuristic Balancing Time: 57
Ideal Balancing Time: 47
--------------------------------------------------------------------------------------------------



Balancing Time: 


47
--------------------------------------------------------------------------------------------------
Activity Information Table
Activity   1-> Duration:      0.000  ||  timeF:    324.000  ||  timeB:      0.000
Activity   2-> Duration:      8.000  ||  timeF:    108.000  ||  timeB:      8.000
Activity   3-> Duration:      7.000  ||  timeF:    210.000  ||  timeB:      7.000
Activity   4-> Duration:     19.000  ||  timeF:    207.000  ||  timeB:     19.000
Activity   5-> Duration:     10.000  ||  timeF:     92.000  ||  timeB:     18.000
Activity   6-> Duration:      2.000  ||  timeF:     90.000  ||  timeB:     10.000
Activity   7-> Duration:      6.000  ||  timeF:     88.000  ||  timeB:     16.000
Activity   8-> Duration:     14.000  ||  timeF:     82.000  ||  timeB:     40.000
Activity   9-> Duration:     10.000  ||  timeF:     68.000  ||  timeB:     50.000
Activity  10-> Duration:      1.000  ||  timeF:     58.000  ||  timeB:     51.000
Activity  11-> Duration:      4.000  ||  timeF:     85.000  ||  timeB:      4.000
Activity  12-> Duration:     14.000  ||  timeF:     14.000  ||  timeB:     21.000
Activity  13-> Duration:     15.000  ||  timeF:    189.000  ||  timeB:     22.000
Activity  14-> Duration:      5.000  ||  timeF:    174.000  ||  timeB:     27.000
Activity  15-> Duration:     12.000  ||  timeF:    169.000  ||  timeB:     39.000
Activity  16-> Duration:      9.000  ||  timeF:     87.000  ||  timeB:     48.000
Activity  17-> Duration:     10.000  ||  timeF:    158.000  ||  timeB:     29.000
Activity  18-> Duration:      2.000  ||  timeF:     30.000  ||  timeB:     21.000
Activity  19-> Duration:     10.000  ||  timeF:     28.000  ||  timeB:     31.000
Activity  20-> Duration:     18.000  ||  timeF:     18.000  ||  timeB:     49.000
Activity  21-> Duration:     16.000  ||  timeF:    148.000  ||  timeB:     84.000
Activity  22-> Duration:     21.000  ||  timeF:     99.000  ||  timeB:    105.000
Activity  23-> Duration:     14.000  ||  timeF:     78.000  ||  timeB:    128.000
Activity  24-> Duration:     16.000  ||  timeF:     64.000  ||  timeB:    144.000
Activity  25-> Duration:      7.000  ||  timeF:     81.000  ||  timeB:     95.000
Activity  26-> Duration:     17.000  ||  timeF:     74.000  ||  timeB:    112.000
Activity  27-> Duration:      9.000  ||  timeF:     57.000  ||  timeB:    172.000
Activity  28-> Duration:     25.000  ||  timeF:     48.000  ||  timeB:    257.000
Activity  29-> Duration:      7.000  ||  timeF:      7.000  ||  timeB:    264.000
Activity  30-> Duration:     14.000  ||  timeF:     16.000  ||  timeB:    271.000
Activity  31-> Duration:      2.000  ||  timeF:      2.000  ||  timeB:    273.000
Activity  32-> Duration:      0.000  ||  timeF:      0.000  ||  timeB:    324.000
--------------------------------------------------------------------------------------------------
Candidate stations for each activity: 
Activity 0:
0 
Activity 1:
0 1 2 3 4 
Activity 2:
0 1 2 
Activity 3:
0 1 2 
Activity 4:
0 1 2 3 4 5 
Activity 5:
0 1 2 3 4 5 
Activity 6:
0 1 2 3 4 5 
Activity 7:
0 1 2 3 4 5 
Activity 8:
1 2 3 4 5 
Activity 9:
1 2 3 4 5 
Activity 10:
0 1 2 3 4 5 
Activity 11:
0 1 2 3 4 5 6 
Activity 12:
0 1 2 
Activity 13:
0 1 2 3 
Activity 14:
0 1 2 3 
Activity 15:
1 2 3 4 5 
Activity 16:
0 1 2 3 
Activity 17:
0 1 2 3 4 5 6 
Activity 18:
0 1 2 3 4 5 6 
Activity 19:
1 2 3 4 5 6 
Activity 20:
1 2 3 
Activity 21:
2 3 4 
Activity 22:
2 3 4 5 
Activity 23:
3 4 5 
Activity 24:
2 3 4 5 
Activity 25:
2 3 4 5 
Activity 26:
3 4 5 
Activity 27:
5 
Activity 28:
5 6 
Activity 29:
5 6 
Activity 30:
5 6 
Activity 31:
6 

--------------------------------------------------------------------------------------------------
------RESTRICCIONES----- 


-------- PRECEDENCE RESTRICTIONS --------
Origin Activity 1 - Destination Activity 4
Origin Activity 1 - Destination Activity 5
Origin Activity 2 - Destination Activity 11
Origin Activity 2 - Destination Activity 12
Origin Activity 3 - Destination Activity 16
Origin Activity 3 - Destination Activity 17
Origin Activity 4 - Destination Activity 7
Origin Activity 5 - Destination Activity 6
Origin Activity 6 - Destination Activity 7
Origin Activity 7 - Destination Activity 8
Origin Activity 8 - Destination Activity 9
Origin Activity 9 - Destination Activity 26
Origin Activity 10 - Destination Activity 24
Origin Activity 12 - Destination Activity 13
Origin Activity 13 - Destination Activity 14
Origin Activity 14 - Destination Activity 15
Origin Activity 14 - Destination Activity 20
Origin Activity 15 - Destination Activity 22
Origin Activity 16 - Destination Activity 20
Origin Activity 17 - Destination Activity 18
Origin Activity 18 - Destination Activity 19
Origin Activity 20 - Destination Activity 21
Origin Activity 20 - Destination Activity 24
Origin Activity 21 - Destination Activity 22
Origin Activity 22 - Destination Activity 23
Origin Activity 24 - Destination Activity 25
Origin Activity 25 - Destination Activity 26
Origin Activity 29 - Destination Activity 30

-------- DURATION RESTRICTIONS --------

 ***
Station: 0
Constant: 0
b0c0d0e0f0g0h0k0l0m0n0o0q0r0s0
 ***
Station: 1
Constant: 0
b1c1d1e1f1g1h1i1j1k1l1m1n1o1p1q1r1s1t1u1
 ***
Station: 2
Constant: 0
b2c2d2e2f2g2h2i2j2k2l2m2n2o2p2q2r2s2t2u2v2w2y2z2
 ***
Station: 3
Constant: 0
b3e3f3g3h3i3j3k3l3n3o3p3q3r3s3t3u3v3w3x3y3z3aa3
 ***
Station: 4
Constant: 0
b4e4f4g4h4i4j4k4l4p4r4s4t4v4w4x4y4z4aa4
 ***
Station: 5
Constant: 25
e5f5g5h5i5j5k5l5p5r5s5t5w5x5y5z5aa5ac5ad5ae5
 ***
Station: 6
Constant: 0
l6r6s6t6ac6ad6ae6
-------- UNICITY RESTRICTIONS --------
b0:b1:b2:b3:b4
c0:c1:c2
d0:d1:d2
e0:e1:e2:e3:e4:e5
f0:f1:f2:f3:f4:f5
g0:g1:g2:g3:g4:g5
h0:h1:h2:h3:h4:h5
i1:i2:i3:i4:i5
j1:j2:j3:j4:j5
k0:k1:k2:k3:k4:k5
l0:l1:l2:l3:l4:l5:l6
m0:m1:m2
n0:n1:n2:n3
o0:o1:o2:o3
p1:p2:p3:p4:p5
q0:q1:q2:q3
r0:r1:r2:r3:r4:r5:r6
s0:s1:s2:s3:s4:s5:s6
t1:t2:t3:t4:t5:t6
u1:u2:u3
v2:v3:v4
w2:w3:w4:w5
x3:x4:x5
y2:y3:y4:y5
z2:z3:z4:z5
aa3:aa4:aa5
ac5:ac6
ad5:ad6
ae5:ae6


 ------TABLA UNIVERSO----- 

11111111001111101110000000000000
01111111111111111111100000000000
01111111111111111111111011000000
01001111111101111111111111100000
01001111111100010111011111100000
00001111111100010111001111111110
00000000000100000111000000001111


 ------RESTRICCIONES PRECEDENCIA BOOLEANAS----- 


ERROR EN PRECEDENCIA
Origen: 1
Destino: 4
j: 4
JDest: 0
NEGACION ORIGIN: b0,b1,b2,b3
NEGACION DEST: e1,e2,e3,e4,e5
b0,b1,b2,b3,e1,e2,e3,e4,e5
j: 4
JDest: 1
NEGACION ORIGIN: b0,b1,b2,b3
NEGACION DEST: e0,e2,e3,e4,e5
b0,b1,b2,b3,e0,e2,e3,e4,e5
j: 4
JDest: 2
NEGACION ORIGIN: b0,b1,b2,b3
NEGACION DEST: e0,e1,e3,e4,e5
b0,b1,b2,b3,e0,e1,e3,e4,e5
j: 4
JDest: 3
NEGACION ORIGIN: b0,b1,b2,b3
NEGACION DEST: e0,e1,e2,e4,e5
b0,b1,b2,b3,e0,e1,e2,e4,e5
j: 3
JDest: 0
NEGACION ORIGIN: b0,b1,b2,b4
NEGACION DEST: e1,e2,e3,e4,e5
b0,b1,b2,b4,e1,e2,e3,e4,e5
j: 3
JDest: 1
NEGACION ORIGIN: b0,b1,b2,b4
NEGACION DEST: e0,e2,e3,e4,e5
b0,b1,b2,b4,e0,e2,e3,e4,e5
j: 3
JDest: 2
NEGACION ORIGIN: b0,b1,b2,b4
NEGACION DEST: e0,e1,e3,e4,e5
b0,b1,b2,b4,e0,e1,e3,e4,e5
j: 2
JDest: 0
NEGACION ORIGIN: b0,b1,b3,b4
NEGACION DEST: e1,e2,e3,e4,e5
b0,b1,b3,b4,e1,e2,e3,e4,e5
j: 2
JDest: 1
NEGACION ORIGIN: b0,b1,b3,b4
NEGACION DEST: e0,e2,e3,e4,e5
b0,b1,b3,b4,e0,e2,e3,e4,e5
j: 1
JDest: 0
NEGACION ORIGIN: b0,b2,b3,b4
NEGACION DEST: e1,e2,e3,e4,e5
b0,b2,b3,b4,e1,e2,e3,e4,e5
ERROR EN PRECEDENCIA
Origen: 1
Destino: 5
j: 4
JDest: 0
NEGACION ORIGIN: b0,b1,b2,b3
NEGACION DEST: f1,f2,f3,f4,f5
b0,b1,b2,b3,f1,f2,f3,f4,f5
j: 4
JDest: 1
NEGACION ORIGIN: b0,b1,b2,b3
NEGACION DEST: f0,f2,f3,f4,f5
b0,b1,b2,b3,f0,f2,f3,f4,f5
j: 4
JDest: 2
NEGACION ORIGIN: b0,b1,b2,b3
NEGACION DEST: f0,f1,f3,f4,f5
b0,b1,b2,b3,f0,f1,f3,f4,f5
j: 4
JDest: 3
NEGACION ORIGIN: b0,b1,b2,b3
NEGACION DEST: f0,f1,f2,f4,f5
b0,b1,b2,b3,f0,f1,f2,f4,f5
j: 3
JDest: 0
NEGACION ORIGIN: b0,b1,b2,b4
NEGACION DEST: f1,f2,f3,f4,f5
b0,b1,b2,b4,f1,f2,f3,f4,f5
j: 3
JDest: 1
NEGACION ORIGIN: b0,b1,b2,b4
NEGACION DEST: f0,f2,f3,f4,f5
b0,b1,b2,b4,f0,f2,f3,f4,f5
j: 3
JDest: 2
NEGACION ORIGIN: b0,b1,b2,b4
NEGACION DEST: f0,f1,f3,f4,f5
b0,b1,b2,b4,f0,f1,f3,f4,f5
j: 2
JDest: 0
NEGACION ORIGIN: b0,b1,b3,b4
NEGACION DEST: f1,f2,f3,f4,f5
b0,b1,b3,b4,f1,f2,f3,f4,f5
j: 2
JDest: 1
NEGACION ORIGIN: b0,b1,b3,b4
NEGACION DEST: f0,f2,f3,f4,f5
b0,b1,b3,b4,f0,f2,f3,f4,f5
j: 1
JDest: 0
NEGACION ORIGIN: b0,b2,b3,b4
NEGACION DEST: f1,f2,f3,f4,f5
b0,b2,b3,b4,f1,f2,f3,f4,f5
ERROR EN PRECEDENCIA
Origen: 2
Destino: 11
j: 2
JDest: 0
NEGACION ORIGIN: c0,c1
NEGACION DEST: l1,l2,l3,l4,l5,l6
c0,c1,l1,l2,l3,l4,l5,l6
j: 2
JDest: 1
NEGACION ORIGIN: c0,c1
NEGACION DEST: l0,l2,l3,l4,l5,l6
c0,c1,l0,l2,l3,l4,l5,l6
j: 1
JDest: 0
NEGACION ORIGIN: c0,c2
NEGACION DEST: l1,l2,l3,l4,l5,l6
c0,c2,l1,l2,l3,l4,l5,l6
ERROR EN PRECEDENCIA
Origen: 2
Destino: 12
j: 2
JDest: 0
NEGACION ORIGIN: c0,c1
NEGACION DEST: m1,m2
c0,c1,m1,m2
j: 2
JDest: 1
NEGACION ORIGIN: c0,c1
NEGACION DEST: m0,m2
c0,c1,m0,m2
j: 1
JDest: 0
NEGACION ORIGIN: c0,c2
NEGACION DEST: m1,m2
c0,c2,m1,m2
ERROR EN PRECEDENCIA
Origen: 3
Destino: 16
j: 2
JDest: 0
NEGACION ORIGIN: d0,d1
NEGACION DEST: q1,q2,q3
d0,d1,q1,q2,q3
j: 2
JDest: 1
NEGACION ORIGIN: d0,d1
NEGACION DEST: q0,q2,q3
d0,d1,q0,q2,q3
j: 1
JDest: 0
NEGACION ORIGIN: d0,d2
NEGACION DEST: q1,q2,q3
d0,d2,q1,q2,q3
ERROR EN PRECEDENCIA
Origen: 3
Destino: 17
j: 2
JDest: 0
NEGACION ORIGIN: d0,d1
NEGACION DEST: r1,r2,r3,r4,r5,r6
d0,d1,r1,r2,r3,r4,r5,r6
j: 2
JDest: 1
NEGACION ORIGIN: d0,d1
NEGACION DEST: r0,r2,r3,r4,r5,r6
d0,d1,r0,r2,r3,r4,r5,r6
j: 1
JDest: 0
NEGACION ORIGIN: d0,d2
NEGACION DEST: r1,r2,r3,r4,r5,r6
d0,d2,r1,r2,r3,r4,r5,r6
ERROR EN PRECEDENCIA
Origen: 4
Destino: 7
j: 5
JDest: 0
NEGACION ORIGIN: e0,e1,e2,e3,e4
NEGACION DEST: h1,h2,h3,h4,h5
e0,e1,e2,e3,e4,h1,h2,h3,h4,h5
j: 5
JDest: 1
NEGACION ORIGIN: e0,e1,e2,e3,e4
NEGACION DEST: h0,h2,h3,h4,h5
e0,e1,e2,e3,e4,h0,h2,h3,h4,h5
j: 5
JDest: 2
NEGACION ORIGIN: e0,e1,e2,e3,e4
NEGACION DEST: h0,h1,h3,h4,h5
e0,e1,e2,e3,e4,h0,h1,h3,h4,h5
j: 5
JDest: 3
NEGACION ORIGIN: e0,e1,e2,e3,e4
NEGACION DEST: h0,h1,h2,h4,h5
e0,e1,e2,e3,e4,h0,h1,h2,h4,h5
j: 5
JDest: 4
NEGACION ORIGIN: e0,e1,e2,e3,e4
NEGACION DEST: h0,h1,h2,h3,h5
e0,e1,e2,e3,e4,h0,h1,h2,h3,h5
j: 4
JDest: 0
NEGACION ORIGIN: e0,e1,e2,e3,e5
NEGACION DEST: h1,h2,h3,h4,h5
e0,e1,e2,e3,e5,h1,h2,h3,h4,h5
j: 4
JDest: 1
NEGACION ORIGIN: e0,e1,e2,e3,e5
NEGACION DEST: h0,h2,h3,h4,h5
e0,e1,e2,e3,e5,h0,h2,h3,h4,h5
j: 4
JDest: 2
NEGACION ORIGIN: e0,e1,e2,e3,e5
NEGACION DEST: h0,h1,h3,h4,h5
e0,e1,e2,e3,e5,h0,h1,h3,h4,h5
j: 4
JDest: 3
NEGACION ORIGIN: e0,e1,e2,e3,e5
NEGACION DEST: h0,h1,h2,h4,h5
e0,e1,e2,e3,e5,h0,h1,h2,h4,h5
j: 3
JDest: 0
NEGACION ORIGIN: e0,e1,e2,e4,e5
NEGACION DEST: h1,h2,h3,h4,h5
e0,e1,e2,e4,e5,h1,h2,h3,h4,h5
j: 3
JDest: 1
NEGACION ORIGIN: e0,e1,e2,e4,e5
NEGACION DEST: h0,h2,h3,h4,h5
e0,e1,e2,e4,e5,h0,h2,h3,h4,h5
j: 3
JDest: 2
NEGACION ORIGIN: e0,e1,e2,e4,e5
NEGACION DEST: h0,h1,h3,h4,h5
e0,e1,e2,e4,e5,h0,h1,h3,h4,h5
j: 2
JDest: 0
NEGACION ORIGIN: e0,e1,e3,e4,e5
NEGACION DEST: h1,h2,h3,h4,h5
e0,e1,e3,e4,e5,h1,h2,h3,h4,h5
j: 2
JDest: 1
NEGACION ORIGIN: e0,e1,e3,e4,e5
NEGACION DEST: h0,h2,h3,h4,h5
e0,e1,e3,e4,e5,h0,h2,h3,h4,h5
j: 1
JDest: 0
NEGACION ORIGIN: e0,e2,e3,e4,e5
NEGACION DEST: h1,h2,h3,h4,h5
e0,e2,e3,e4,e5,h1,h2,h3,h4,h5
ERROR EN PRECEDENCIA
Origen: 5
Destino: 6
j: 5
JDest: 0
NEGACION ORIGIN: f0,f1,f2,f3,f4
NEGACION DEST: g1,g2,g3,g4,g5
f0,f1,f2,f3,f4,g1,g2,g3,g4,g5
j: 5
JDest: 1
NEGACION ORIGIN: f0,f1,f2,f3,f4
NEGACION DEST: g0,g2,g3,g4,g5
f0,f1,f2,f3,f4,g0,g2,g3,g4,g5
j: 5
JDest: 2
NEGACION ORIGIN: f0,f1,f2,f3,f4
NEGACION DEST: g0,g1,g3,g4,g5
f0,f1,f2,f3,f4,g0,g1,g3,g4,g5
j: 5
JDest: 3
NEGACION ORIGIN: f0,f1,f2,f3,f4
NEGACION DEST: g0,g1,g2,g4,g5
f0,f1,f2,f3,f4,g0,g1,g2,g4,g5
j: 5
JDest: 4
NEGACION ORIGIN: f0,f1,f2,f3,f4
NEGACION DEST: g0,g1,g2,g3,g5
f0,f1,f2,f3,f4,g0,g1,g2,g3,g5
j: 4
JDest: 0
NEGACION ORIGIN: f0,f1,f2,f3,f5
NEGACION DEST: g1,g2,g3,g4,g5
f0,f1,f2,f3,f5,g1,g2,g3,g4,g5
j: 4
JDest: 1
NEGACION ORIGIN: f0,f1,f2,f3,f5
NEGACION DEST: g0,g2,g3,g4,g5
f0,f1,f2,f3,f5,g0,g2,g3,g4,g5
j: 4
JDest: 2
NEGACION ORIGIN: f0,f1,f2,f3,f5
NEGACION DEST: g0,g1,g3,g4,g5
f0,f1,f2,f3,f5,g0,g1,g3,g4,g5
j: 4
JDest: 3
NEGACION ORIGIN: f0,f1,f2,f3,f5
NEGACION DEST: g0,g1,g2,g4,g5
f0,f1,f2,f3,f5,g0,g1,g2,g4,g5
j: 3
JDest: 0
NEGACION ORIGIN: f0,f1,f2,f4,f5
NEGACION DEST: g1,g2,g3,g4,g5
f0,f1,f2,f4,f5,g1,g2,g3,g4,g5
j: 3
JDest: 1
NEGACION ORIGIN: f0,f1,f2,f4,f5
NEGACION DEST: g0,g2,g3,g4,g5
f0,f1,f2,f4,f5,g0,g2,g3,g4,g5
j: 3
JDest: 2
NEGACION ORIGIN: f0,f1,f2,f4,f5
NEGACION DEST: g0,g1,g3,g4,g5
f0,f1,f2,f4,f5,g0,g1,g3,g4,g5
j: 2
JDest: 0
NEGACION ORIGIN: f0,f1,f3,f4,f5
NEGACION DEST: g1,g2,g3,g4,g5
f0,f1,f3,f4,f5,g1,g2,g3,g4,g5
j: 2
JDest: 1
NEGACION ORIGIN: f0,f1,f3,f4,f5
NEGACION DEST: g0,g2,g3,g4,g5
f0,f1,f3,f4,f5,g0,g2,g3,g4,g5
j: 1
JDest: 0
NEGACION ORIGIN: f0,f2,f3,f4,f5
NEGACION DEST: g1,g2,g3,g4,g5
f0,f2,f3,f4,f5,g1,g2,g3,g4,g5
ERROR EN PRECEDENCIA
Origen: 6
Destino: 7
j: 5
JDest: 0
NEGACION ORIGIN: g0,g1,g2,g3,g4
NEGACION DEST: h1,h2,h3,h4,h5
g0,g1,g2,g3,g4,h1,h2,h3,h4,h5
j: 5
JDest: 1
NEGACION ORIGIN: g0,g1,g2,g3,g4
NEGACION DEST: h0,h2,h3,h4,h5
g0,g1,g2,g3,g4,h0,h2,h3,h4,h5
j: 5
JDest: 2
NEGACION ORIGIN: g0,g1,g2,g3,g4
NEGACION DEST: h0,h1,h3,h4,h5
g0,g1,g2,g3,g4,h0,h1,h3,h4,h5
j: 5
JDest: 3
NEGACION ORIGIN: g0,g1,g2,g3,g4
NEGACION DEST: h0,h1,h2,h4,h5
g0,g1,g2,g3,g4,h0,h1,h2,h4,h5
j: 5
JDest: 4
NEGACION ORIGIN: g0,g1,g2,g3,g4
NEGACION DEST: h0,h1,h2,h3,h5
g0,g1,g2,g3,g4,h0,h1,h2,h3,h5
j: 4
JDest: 0
NEGACION ORIGIN: g0,g1,g2,g3,g5
NEGACION DEST: h1,h2,h3,h4,h5
g0,g1,g2,g3,g5,h1,h2,h3,h4,h5
j: 4
JDest: 1
NEGACION ORIGIN: g0,g1,g2,g3,g5
NEGACION DEST: h0,h2,h3,h4,h5
g0,g1,g2,g3,g5,h0,h2,h3,h4,h5
j: 4
JDest: 2
NEGACION ORIGIN: g0,g1,g2,g3,g5
NEGACION DEST: h0,h1,h3,h4,h5
g0,g1,g2,g3,g5,h0,h1,h3,h4,h5
j: 4
JDest: 3
NEGACION ORIGIN: g0,g1,g2,g3,g5
NEGACION DEST: h0,h1,h2,h4,h5
g0,g1,g2,g3,g5,h0,h1,h2,h4,h5
j: 3
JDest: 0
NEGACION ORIGIN: g0,g1,g2,g4,g5
NEGACION DEST: h1,h2,h3,h4,h5
g0,g1,g2,g4,g5,h1,h2,h3,h4,h5
j: 3
JDest: 1
NEGACION ORIGIN: g0,g1,g2,g4,g5
NEGACION DEST: h0,h2,h3,h4,h5
g0,g1,g2,g4,g5,h0,h2,h3,h4,h5
j: 3
JDest: 2
NEGACION ORIGIN: g0,g1,g2,g4,g5
NEGACION DEST: h0,h1,h3,h4,h5
g0,g1,g2,g4,g5,h0,h1,h3,h4,h5
j: 2
JDest: 0
NEGACION ORIGIN: g0,g1,g3,g4,g5
NEGACION DEST: h1,h2,h3,h4,h5
g0,g1,g3,g4,g5,h1,h2,h3,h4,h5
j: 2
JDest: 1
NEGACION ORIGIN: g0,g1,g3,g4,g5
NEGACION DEST: h0,h2,h3,h4,h5
g0,g1,g3,g4,g5,h0,h2,h3,h4,h5
j: 1
JDest: 0
NEGACION ORIGIN: g0,g2,g3,g4,g5
NEGACION DEST: h1,h2,h3,h4,h5
g0,g2,g3,g4,g5,h1,h2,h3,h4,h5
ERROR EN PRECEDENCIA
Origen: 7
Destino: 8
j: 5
JDest: 1
NEGACION ORIGIN: h0,h1,h2,h3,h4
NEGACION DEST: i2,i3,i4,i5
h0,h1,h2,h3,h4,i2,i3,i4,i5
j: 5
JDest: 2
NEGACION ORIGIN: h0,h1,h2,h3,h4
NEGACION DEST: i1,i3,i4,i5
h0,h1,h2,h3,h4,i1,i3,i4,i5
j: 5
JDest: 3
NEGACION ORIGIN: h0,h1,h2,h3,h4
NEGACION DEST: i1,i2,i4,i5
h0,h1,h2,h3,h4,i1,i2,i4,i5
j: 5
JDest: 4
NEGACION ORIGIN: h0,h1,h2,h3,h4
NEGACION DEST: i1,i2,i3,i5
h0,h1,h2,h3,h4,i1,i2,i3,i5
j: 4
JDest: 1
NEGACION ORIGIN: h0,h1,h2,h3,h5
NEGACION DEST: i2,i3,i4,i5
h0,h1,h2,h3,h5,i2,i3,i4,i5
j: 4
JDest: 2
NEGACION ORIGIN: h0,h1,h2,h3,h5
NEGACION DEST: i1,i3,i4,i5
h0,h1,h2,h3,h5,i1,i3,i4,i5
j: 4
JDest: 3
NEGACION ORIGIN: h0,h1,h2,h3,h5
NEGACION DEST: i1,i2,i4,i5
h0,h1,h2,h3,h5,i1,i2,i4,i5
j: 3
JDest: 1
NEGACION ORIGIN: h0,h1,h2,h4,h5
NEGACION DEST: i2,i3,i4,i5
h0,h1,h2,h4,h5,i2,i3,i4,i5
j: 3
JDest: 2
NEGACION ORIGIN: h0,h1,h2,h4,h5
NEGACION DEST: i1,i3,i4,i5
h0,h1,h2,h4,h5,i1,i3,i4,i5
j: 2
JDest: 1
NEGACION ORIGIN: h0,h1,h3,h4,h5
NEGACION DEST: i2,i3,i4,i5
h0,h1,h3,h4,h5,i2,i3,i4,i5
ERROR EN PRECEDENCIA
Origen: 8
Destino: 9
j: 5
JDest: 1
NEGACION ORIGIN: i1,i2,i3,i4
NEGACION DEST: j2,j3,j4,j5
i1,i2,i3,i4,j2,j3,j4,j5
j: 5
JDest: 2
NEGACION ORIGIN: i1,i2,i3,i4
NEGACION DEST: j1,j3,j4,j5
i1,i2,i3,i4,j1,j3,j4,j5
j: 5
JDest: 3
NEGACION ORIGIN: i1,i2,i3,i4
NEGACION DEST: j1,j2,j4,j5
i1,i2,i3,i4,j1,j2,j4,j5
j: 5
JDest: 4
NEGACION ORIGIN: i1,i2,i3,i4
NEGACION DEST: j1,j2,j3,j5
i1,i2,i3,i4,j1,j2,j3,j5
j: 4
JDest: 1
NEGACION ORIGIN: i1,i2,i3,i5
NEGACION DEST: j2,j3,j4,j5
i1,i2,i3,i5,j2,j3,j4,j5
j: 4
JDest: 2
NEGACION ORIGIN: i1,i2,i3,i5
NEGACION DEST: j1,j3,j4,j5
i1,i2,i3,i5,j1,j3,j4,j5
j: 4
JDest: 3
NEGACION ORIGIN: i1,i2,i3,i5
NEGACION DEST: j1,j2,j4,j5
i1,i2,i3,i5,j1,j2,j4,j5
j: 3
JDest: 1
NEGACION ORIGIN: i1,i2,i4,i5
NEGACION DEST: j2,j3,j4,j5
i1,i2,i4,i5,j2,j3,j4,j5
j: 3
JDest: 2
NEGACION ORIGIN: i1,i2,i4,i5
NEGACION DEST: j1,j3,j4,j5
i1,i2,i4,i5,j1,j3,j4,j5
j: 2
JDest: 1
NEGACION ORIGIN: i1,i3,i4,i5
NEGACION DEST: j2,j3,j4,j5
i1,i3,i4,i5,j2,j3,j4,j5
ERROR EN PRECEDENCIA
Origen: 9
Destino: 26
j: 5
JDest: 3
NEGACION ORIGIN: j1,j2,j3,j4
NEGACION DEST: aa4,aa5
j1,j2,j3,j4,aa4,aa5
j: 5
JDest: 4
NEGACION ORIGIN: j1,j2,j3,j4
NEGACION DEST: aa3,aa5
j1,j2,j3,j4,aa3,aa5
j: 4
JDest: 3
NEGACION ORIGIN: j1,j2,j3,j5
NEGACION DEST: aa4,aa5
j1,j2,j3,j5,aa4,aa5
ERROR EN PRECEDENCIA
Origen: 10
Destino: 24
j: 5
JDest: 2
NEGACION ORIGIN: k0,k1,k2,k3,k4
NEGACION DEST: y3,y4,y5
k0,k1,k2,k3,k4,y3,y4,y5
j: 5
JDest: 3
NEGACION ORIGIN: k0,k1,k2,k3,k4
NEGACION DEST: y2,y4,y5
k0,k1,k2,k3,k4,y2,y4,y5
j: 5
JDest: 4
NEGACION ORIGIN: k0,k1,k2,k3,k4
NEGACION DEST: y2,y3,y5
k0,k1,k2,k3,k4,y2,y3,y5
j: 4
JDest: 2
NEGACION ORIGIN: k0,k1,k2,k3,k5
NEGACION DEST: y3,y4,y5
k0,k1,k2,k3,k5,y3,y4,y5
j: 4
JDest: 3
NEGACION ORIGIN: k0,k1,k2,k3,k5
NEGACION DEST: y2,y4,y5
k0,k1,k2,k3,k5,y2,y4,y5
j: 3
JDest: 2
NEGACION ORIGIN: k0,k1,k2,k4,k5
NEGACION DEST: y3,y4,y5
k0,k1,k2,k4,k5,y3,y4,y5
ERROR EN PRECEDENCIA
Origen: 12
Destino: 13
j: 2
JDest: 0
NEGACION ORIGIN: m0,m1
NEGACION DEST: n1,n2,n3
m0,m1,n1,n2,n3
j: 2
JDest: 1
NEGACION ORIGIN: m0,m1
NEGACION DEST: n0,n2,n3
m0,m1,n0,n2,n3
j: 1
JDest: 0
NEGACION ORIGIN: m0,m2
NEGACION DEST: n1,n2,n3
m0,m2,n1,n2,n3
ERROR EN PRECEDENCIA
Origen: 13
Destino: 14
j: 3
JDest: 0
NEGACION ORIGIN: n0,n1,n2
NEGACION DEST: o1,o2,o3
n0,n1,n2,o1,o2,o3
j: 3
JDest: 1
NEGACION ORIGIN: n0,n1,n2
NEGACION DEST: o0,o2,o3
n0,n1,n2,o0,o2,o3
j: 3
JDest: 2
NEGACION ORIGIN: n0,n1,n2
NEGACION DEST: o0,o1,o3
n0,n1,n2,o0,o1,o3
j: 2
JDest: 0
NEGACION ORIGIN: n0,n1,n3
NEGACION DEST: o1,o2,o3
n0,n1,n3,o1,o2,o3
j: 2
JDest: 1
NEGACION ORIGIN: n0,n1,n3
NEGACION DEST: o0,o2,o3
n0,n1,n3,o0,o2,o3
j: 1
JDest: 0
NEGACION ORIGIN: n0,n2,n3
NEGACION DEST: o1,o2,o3
n0,n2,n3,o1,o2,o3
ERROR EN PRECEDENCIA
Origen: 14
Destino: 15
j: 3
JDest: 1
NEGACION ORIGIN: o0,o1,o2
NEGACION DEST: p2,p3,p4,p5
o0,o1,o2,p2,p3,p4,p5
j: 3
JDest: 2
NEGACION ORIGIN: o0,o1,o2
NEGACION DEST: p1,p3,p4,p5
o0,o1,o2,p1,p3,p4,p5
j: 2
JDest: 1
NEGACION ORIGIN: o0,o1,o3
NEGACION DEST: p2,p3,p4,p5
o0,o1,o3,p2,p3,p4,p5
ERROR EN PRECEDENCIA
Origen: 14
Destino: 20
j: 3
JDest: 1
NEGACION ORIGIN: o0,o1,o2
NEGACION DEST: u2,u3
o0,o1,o2,u2,u3
j: 3
JDest: 2
NEGACION ORIGIN: o0,o1,o2
NEGACION DEST: u1,u3
o0,o1,o2,u1,u3
j: 2
JDest: 1
NEGACION ORIGIN: o0,o1,o3
NEGACION DEST: u2,u3
o0,o1,o3,u2,u3
ERROR EN PRECEDENCIA
Origen: 15
Destino: 22
j: 5
JDest: 2
NEGACION ORIGIN: p1,p2,p3,p4
NEGACION DEST: w3,w4,w5
p1,p2,p3,p4,w3,w4,w5
j: 5
JDest: 3
NEGACION ORIGIN: p1,p2,p3,p4
NEGACION DEST: w2,w4,w5
p1,p2,p3,p4,w2,w4,w5
j: 5
JDest: 4
NEGACION ORIGIN: p1,p2,p3,p4
NEGACION DEST: w2,w3,w5
p1,p2,p3,p4,w2,w3,w5
j: 4
JDest: 2
NEGACION ORIGIN: p1,p2,p3,p5
NEGACION DEST: w3,w4,w5
p1,p2,p3,p5,w3,w4,w5
j: 4
JDest: 3
NEGACION ORIGIN: p1,p2,p3,p5
NEGACION DEST: w2,w4,w5
p1,p2,p3,p5,w2,w4,w5
j: 3
JDest: 2
NEGACION ORIGIN: p1,p2,p4,p5
NEGACION DEST: w3,w4,w5
p1,p2,p4,p5,w3,w4,w5
ERROR EN PRECEDENCIA
Origen: 16
Destino: 20
j: 3
JDest: 1
NEGACION ORIGIN: q0,q1,q2
NEGACION DEST: u2,u3
q0,q1,q2,u2,u3
j: 3
JDest: 2
NEGACION ORIGIN: q0,q1,q2
NEGACION DEST: u1,u3
q0,q1,q2,u1,u3
j: 2
JDest: 1
NEGACION ORIGIN: q0,q1,q3
NEGACION DEST: u2,u3
q0,q1,q3,u2,u3
ERROR EN PRECEDENCIA
Origen: 17
Destino: 18
j: 6
JDest: 0
NEGACION ORIGIN: r0,r1,r2,r3,r4,r5
NEGACION DEST: s1,s2,s3,s4,s5,s6
r0,r1,r2,r3,r4,r5,s1,s2,s3,s4,s5,s6
j: 6
JDest: 1
NEGACION ORIGIN: r0,r1,r2,r3,r4,r5
NEGACION DEST: s0,s2,s3,s4,s5,s6
r0,r1,r2,r3,r4,r5,s0,s2,s3,s4,s5,s6
j: 6
JDest: 2
NEGACION ORIGIN: r0,r1,r2,r3,r4,r5
NEGACION DEST: s0,s1,s3,s4,s5,s6
r0,r1,r2,r3,r4,r5,s0,s1,s3,s4,s5,s6
j: 6
JDest: 3
NEGACION ORIGIN: r0,r1,r2,r3,r4,r5
NEGACION DEST: s0,s1,s2,s4,s5,s6
r0,r1,r2,r3,r4,r5,s0,s1,s2,s4,s5,s6
j: 6
JDest: 4
NEGACION ORIGIN: r0,r1,r2,r3,r4,r5
NEGACION DEST: s0,s1,s2,s3,s5,s6
r0,r1,r2,r3,r4,r5,s0,s1,s2,s3,s5,s6
j: 6
JDest: 5
NEGACION ORIGIN: r0,r1,r2,r3,r4,r5
NEGACION DEST: s0,s1,s2,s3,s4,s6
r0,r1,r2,r3,r4,r5,s0,s1,s2,s3,s4,s6
j: 5
JDest: 0
NEGACION ORIGIN: r0,r1,r2,r3,r4,r6
NEGACION DEST: s1,s2,s3,s4,s5,s6
r0,r1,r2,r3,r4,r6,s1,s2,s3,s4,s5,s6
j: 5
JDest: 1
NEGACION ORIGIN: r0,r1,r2,r3,r4,r6
NEGACION DEST: s0,s2,s3,s4,s5,s6
r0,r1,r2,r3,r4,r6,s0,s2,s3,s4,s5,s6
j: 5
JDest: 2
NEGACION ORIGIN: r0,r1,r2,r3,r4,r6
NEGACION DEST: s0,s1,s3,s4,s5,s6
r0,r1,r2,r3,r4,r6,s0,s1,s3,s4,s5,s6
j: 5
JDest: 3
NEGACION ORIGIN: r0,r1,r2,r3,r4,r6
NEGACION DEST: s0,s1,s2,s4,s5,s6
r0,r1,r2,r3,r4,r6,s0,s1,s2,s4,s5,s6
j: 5
JDest: 4
NEGACION ORIGIN: r0,r1,r2,r3,r4,r6
NEGACION DEST: s0,s1,s2,s3,s5,s6
r0,r1,r2,r3,r4,r6,s0,s1,s2,s3,s5,s6
j: 4
JDest: 0
NEGACION ORIGIN: r0,r1,r2,r3,r5,r6
NEGACION DEST: s1,s2,s3,s4,s5,s6
r0,r1,r2,r3,r5,r6,s1,s2,s3,s4,s5,s6
j: 4
JDest: 1
NEGACION ORIGIN: r0,r1,r2,r3,r5,r6
NEGACION DEST: s0,s2,s3,s4,s5,s6
r0,r1,r2,r3,r5,r6,s0,s2,s3,s4,s5,s6
j: 4
JDest: 2
NEGACION ORIGIN: r0,r1,r2,r3,r5,r6
NEGACION DEST: s0,s1,s3,s4,s5,s6
r0,r1,r2,r3,r5,r6,s0,s1,s3,s4,s5,s6
j: 4
JDest: 3
NEGACION ORIGIN: r0,r1,r2,r3,r5,r6
NEGACION DEST: s0,s1,s2,s4,s5,s6
r0,r1,r2,r3,r5,r6,s0,s1,s2,s4,s5,s6
j: 3
JDest: 0
NEGACION ORIGIN: r0,r1,r2,r4,r5,r6
NEGACION DEST: s1,s2,s3,s4,s5,s6
r0,r1,r2,r4,r5,r6,s1,s2,s3,s4,s5,s6
j: 3
JDest: 1
NEGACION ORIGIN: r0,r1,r2,r4,r5,r6
NEGACION DEST: s0,s2,s3,s4,s5,s6
r0,r1,r2,r4,r5,r6,s0,s2,s3,s4,s5,s6
j: 3
JDest: 2
NEGACION ORIGIN: r0,r1,r2,r4,r5,r6
NEGACION DEST: s0,s1,s3,s4,s5,s6
r0,r1,r2,r4,r5,r6,s0,s1,s3,s4,s5,s6
j: 2
JDest: 0
NEGACION ORIGIN: r0,r1,r3,r4,r5,r6
NEGACION DEST: s1,s2,s3,s4,s5,s6
r0,r1,r3,r4,r5,r6,s1,s2,s3,s4,s5,s6
j: 2
JDest: 1
NEGACION ORIGIN: r0,r1,r3,r4,r5,r6
NEGACION DEST: s0,s2,s3,s4,s5,s6
r0,r1,r3,r4,r5,r6,s0,s2,s3,s4,s5,s6
j: 1
JDest: 0
NEGACION ORIGIN: r0,r2,r3,r4,r5,r6
NEGACION DEST: s1,s2,s3,s4,s5,s6
r0,r2,r3,r4,r5,r6,s1,s2,s3,s4,s5,s6
ERROR EN PRECEDENCIA
Origen: 18
Destino: 19
j: 6
JDest: 1
NEGACION ORIGIN: s0,s1,s2,s3,s4,s5
NEGACION DEST: t2,t3,t4,t5,t6
s0,s1,s2,s3,s4,s5,t2,t3,t4,t5,t6
j: 6
JDest: 2
NEGACION ORIGIN: s0,s1,s2,s3,s4,s5
NEGACION DEST: t1,t3,t4,t5,t6
s0,s1,s2,s3,s4,s5,t1,t3,t4,t5,t6
j: 6
JDest: 3
NEGACION ORIGIN: s0,s1,s2,s3,s4,s5
NEGACION DEST: t1,t2,t4,t5,t6
s0,s1,s2,s3,s4,s5,t1,t2,t4,t5,t6
j: 6
JDest: 4
NEGACION ORIGIN: s0,s1,s2,s3,s4,s5
NEGACION DEST: t1,t2,t3,t5,t6
s0,s1,s2,s3,s4,s5,t1,t2,t3,t5,t6
j: 6
JDest: 5
NEGACION ORIGIN: s0,s1,s2,s3,s4,s5
NEGACION DEST: t1,t2,t3,t4,t6
s0,s1,s2,s3,s4,s5,t1,t2,t3,t4,t6
j: 5
JDest: 1
NEGACION ORIGIN: s0,s1,s2,s3,s4,s6
NEGACION DEST: t2,t3,t4,t5,t6
s0,s1,s2,s3,s4,s6,t2,t3,t4,t5,t6
j: 5
JDest: 2
NEGACION ORIGIN: s0,s1,s2,s3,s4,s6
NEGACION DEST: t1,t3,t4,t5,t6
s0,s1,s2,s3,s4,s6,t1,t3,t4,t5,t6
j: 5
JDest: 3
NEGACION ORIGIN: s0,s1,s2,s3,s4,s6
NEGACION DEST: t1,t2,t4,t5,t6
s0,s1,s2,s3,s4,s6,t1,t2,t4,t5,t6
j: 5
JDest: 4
NEGACION ORIGIN: s0,s1,s2,s3,s4,s6
NEGACION DEST: t1,t2,t3,t5,t6
s0,s1,s2,s3,s4,s6,t1,t2,t3,t5,t6
j: 4
JDest: 1
NEGACION ORIGIN: s0,s1,s2,s3,s5,s6
NEGACION DEST: t2,t3,t4,t5,t6
s0,s1,s2,s3,s5,s6,t2,t3,t4,t5,t6
j: 4
JDest: 2
NEGACION ORIGIN: s0,s1,s2,s3,s5,s6
NEGACION DEST: t1,t3,t4,t5,t6
s0,s1,s2,s3,s5,s6,t1,t3,t4,t5,t6
j: 4
JDest: 3
NEGACION ORIGIN: s0,s1,s2,s3,s5,s6
NEGACION DEST: t1,t2,t4,t5,t6
s0,s1,s2,s3,s5,s6,t1,t2,t4,t5,t6
j: 3
JDest: 1
NEGACION ORIGIN: s0,s1,s2,s4,s5,s6
NEGACION DEST: t2,t3,t4,t5,t6
s0,s1,s2,s4,s5,s6,t2,t3,t4,t5,t6
j: 3
JDest: 2
NEGACION ORIGIN: s0,s1,s2,s4,s5,s6
NEGACION DEST: t1,t3,t4,t5,t6
s0,s1,s2,s4,s5,s6,t1,t3,t4,t5,t6
j: 2
JDest: 1
NEGACION ORIGIN: s0,s1,s3,s4,s5,s6
NEGACION DEST: t2,t3,t4,t5,t6
s0,s1,s3,s4,s5,s6,t2,t3,t4,t5,t6
ERROR EN PRECEDENCIA
Origen: 20
Destino: 21
j: 3
JDest: 2
NEGACION ORIGIN: u1,u2
NEGACION DEST: v3,v4
u1,u2,v3,v4
ERROR EN PRECEDENCIA
Origen: 20
Destino: 24
j: 3
JDest: 2
NEGACION ORIGIN: u1,u2
NEGACION DEST: y3,y4,y5
u1,u2,y3,y4,y5
ERROR EN PRECEDENCIA
Origen: 21
Destino: 22
j: 4
JDest: 2
NEGACION ORIGIN: v2,v3
NEGACION DEST: w3,w4,w5
v2,v3,w3,w4,w5
j: 4
JDest: 3
NEGACION ORIGIN: v2,v3
NEGACION DEST: w2,w4,w5
v2,v3,w2,w4,w5
j: 3
JDest: 2
NEGACION ORIGIN: v2,v4
NEGACION DEST: w3,w4,w5
v2,v4,w3,w4,w5
ERROR EN PRECEDENCIA
Origen: 22
Destino: 23
j: 5
JDest: 3
NEGACION ORIGIN: w2,w3,w4
NEGACION DEST: x4,x5
w2,w3,w4,x4,x5
j: 5
JDest: 4
NEGACION ORIGIN: w2,w3,w4
NEGACION DEST: x3,x5
w2,w3,w4,x3,x5
j: 4
JDest: 3
NEGACION ORIGIN: w2,w3,w5
NEGACION DEST: x4,x5
w2,w3,w5,x4,x5
ERROR EN PRECEDENCIA
Origen: 24
Destino: 25
j: 5
JDest: 2
NEGACION ORIGIN: y2,y3,y4
NEGACION DEST: z3,z4,z5
y2,y3,y4,z3,z4,z5
j: 5
JDest: 3
NEGACION ORIGIN: y2,y3,y4
NEGACION DEST: z2,z4,z5
y2,y3,y4,z2,z4,z5
j: 5
JDest: 4
NEGACION ORIGIN: y2,y3,y4
NEGACION DEST: z2,z3,z5
y2,y3,y4,z2,z3,z5
j: 4
JDest: 2
NEGACION ORIGIN: y2,y3,y5
NEGACION DEST: z3,z4,z5
y2,y3,y5,z3,z4,z5
j: 4
JDest: 3
NEGACION ORIGIN: y2,y3,y5
NEGACION DEST: z2,z4,z5
y2,y3,y5,z2,z4,z5
j: 3
JDest: 2
NEGACION ORIGIN: y2,y4,y5
NEGACION DEST: z3,z4,z5
y2,y4,y5,z3,z4,z5
ERROR EN PRECEDENCIA
Origen: 25
Destino: 26
j: 5
JDest: 3
NEGACION ORIGIN: z2,z3,z4
NEGACION DEST: aa4,aa5
z2,z3,z4,aa4,aa5
j: 5
JDest: 4
NEGACION ORIGIN: z2,z3,z4
NEGACION DEST: aa3,aa5
z2,z3,z4,aa3,aa5
j: 4
JDest: 3
NEGACION ORIGIN: z2,z3,z5
NEGACION DEST: aa4,aa5
z2,z3,z5,aa4,aa5
ERROR EN PRECEDENCIA
Origen: 29
Destino: 30
j: 6
JDest: 5
NEGACION ORIGIN: ad5
NEGACION DEST: ae6
ad5,ae6


 ------RESTRICTIONS UNICITY BOOLEANAS----- 


b0,b1,b2,b3,b4
c0,c1,c2
d0,d1,d2
e0,e1,e2,e3,e4,e5
f0,f1,f2,f3,f4,f5
g0,g1,g2,g3,g4,g5
h0,h1,h2,h3,h4,h5
i1,i2,i3,i4,i5
j1,j2,j3,j4,j5
k0,k1,k2,k3,k4,k5
l0,l1,l2,l3,l4,l5,l6
m0,m1,m2
n0,n1,n2,n3
o0,o1,o2,o3
p1,p2,p3,p4,p5
q0,q1,q2,q3
r0,r1,r2,r3,r4,r5,r6
s0,s1,s2,s3,s4,s5,s6
t1,t2,t3,t4,t5,t6
u1,u2,u3
v2,v3,v4
w2,w3,w4,w5
x3,x4,x5
y2,y3,y4,y5
z2,z3,z4,z5
aa3,aa4,aa5
ac5,ac6
ad5,ad6
ae5,ae6
a0
ab5
af6


 ------RESTRICTIONS DURACION BOOLEANAS----- 

7
Restricciones Generadas:36114
Negacion de Restricciones Generadas:36114
Integracion Booleana
